p cnf 20 20
19 12 16 0
4 9 -3 0
-12 -7 -20 0
7 20 -3 0
9 5 16 0
-14 -6 15 0
19 -16 12 0
-18 -5 20 0
-18 8 20 0
13 19 3 0
5 19 1 0
-7 4 2 0
16 10 6 0
7 -2 -18 0
19 20 -7 0
20 -2 -12 0
-19 -18 13 0
5 13 14 0
1 14 10 0
-18 -13 17 0
